c FILE /home/rafael/Documents/HappySet/MIHS/inputs/happygen/output/graph_d_regular_k2_p0.1_v50_20241127_082539.txt
c SOURCE This is a d-regular graph formed for the happy graph colouring problem.
c DESCRIPTION It was generated using the problem generator of Rhyd Lewis
c
c GRAPH STATS
c Seed                             = 1437631827
c Number of Nodes                  = 50
c Number of colours k              = 2
c Number of pre-assignments        = 5
c Degree of all vertices           = 6
c Density                          = 0.122449
c 
c The degrees of nodes 1 to 50, respectively, are as follows 
c [6, 6, 6, 6, 6, 6, 6, 6, 6, 6, 6, 6, 6, 6, 6, 6, 6, 6, 6, 6, 6, 6, 6, 6, 6, 6, 
c  6, 6, 6, 6, 6, 6, 6, 6, 6, 6, 6, 6, 6, 6, 6, 6, 6, 6, 6, 6, 6, 6, 6, 6] 
c  
p edge 50 150 2
e 1 2
e 1 25
e 1 28
e 1 30
e 1 35
e 1 40
e 2 16
e 2 28
e 2 29
e 2 33
e 2 37
e 3 22
e 3 23
e 3 24
e 3 32
e 3 40
e 3 49
e 4 7
e 4 20
e 4 30
e 4 36
e 4 37
e 4 50
e 5 12
e 5 17
e 5 21
e 5 22
e 5 47
e 5 49
e 6 17
e 6 20
e 6 31
e 6 36
e 6 42
e 6 46
e 7 21
e 7 22
e 7 27
e 7 32
e 7 41
e 8 10
e 8 24
e 8 38
e 8 43
e 8 45
e 8 50
e 9 14
e 9 19
e 9 20
e 9 34
e 9 38
e 9 47
e 10 14
e 10 16
e 10 21
e 10 29
e 10 46
e 11 13
e 11 15
e 11 18
e 11 24
e 11 34
e 11 47
e 12 23
e 12 26
e 12 39
e 12 40
e 12 50
e 13 15
e 13 33
e 13 35
e 13 39
e 13 43
e 14 18
e 14 41
e 14 42
e 14 48
e 15 22
e 15 25
e 15 26
e 15 42
e 16 31
e 16 32
e 16 33
e 16 40
e 17 21
e 17 22
e 17 44
e 17 48
e 18 21
e 18 26
e 18 34
e 18 35
e 19 25
e 19 29
e 19 36
e 19 37
e 19 39
e 20 26
e 20 42
e 20 46
e 21 26
e 22 37
e 23 31
e 23 38
e 23 39
e 23 46
e 24 28
e 24 35
e 24 44
e 25 38
e 25 41
e 25 42
e 26 45
e 27 28
e 27 37
e 27 43
e 27 47
e 27 50
e 28 34
e 28 48
e 29 32
e 29 33
e 29 45
e 30 35
e 30 44
e 30 46
e 30 48
e 31 36
e 31 39
e 31 43
e 32 38
e 32 49
e 33 35
e 33 41
e 34 45
e 34 49
e 36 44
e 36 50
e 37 50
e 38 47
e 39 44
e 40 41
e 40 48
e 41 49
e 42 45
e 43 44
e 43 47
e 45 49
e 46 48
n 5 2
n 7 1
n 20 2
n 24 1
n 34 1
